c 
c G(k,n,p) graph
c graph gen seed     : 87
c number of vertices : 20
c max number of edges: 400
c number of classes  : 2
c edge density       : 0.400000
c edge probability   : 0.800000
c data structure     : sparse
c
c           Graph Stats
c number of vertices  : 20
c nonisolated vertices: 20
c number of edges     : 71
c edge density        : 0.373684
c max degree          : 10
c avg degree          : 7.10
c min degree          : 4
p col 20 71
e 1 3
e 1 4
e 1 5
e 1 6
e 1 8
e 1 9
e 1 10
e 1 11
e 1 12
e 1 13
e 1 15
e 1 17
e 1 18
e 1 19
e 2 3
e 2 4
e 2 7
e 2 8
e 2 9
e 2 10
e 2 12
e 2 13
e 2 14
e 2 15
e 2 16
e 2 18
e 2 20
e 3 5
e 3 6
e 3 8
e 3 10
e 3 11
e 3 14
e 3 15
e 3 17
e 3 18
e 3 19
e 4 5
e 4 7
e 4 8
e 4 9
e 4 10
e 4 12
e 4 13
e 4 14
e 4 15
e 4 16
e 4 20
e 5 6
e 5 7
e 5 8
e 5 9
e 5 11
e 5 17
e 5 18
e 5 19
e 5 20
e 6 8
e 6 11
e 6 15
e 6 17
e 6 18
e 6 19
e 7 9
e 7 10
e 7 12
e 7 13
e 7 14
e 7 15
e 7 16
e 7 18
e 7 19
e 7 20
e 8 11
e 8 15
e 8 17
e 8 18
e 8 19
e 8 20
e 9 10
e 9 12
e 9 13
e 9 14
e 9 15
e 9 16
e 9 20
e 10 12
e 10 13
e 10 14
e 10 15
e 10 16
e 10 20
e 11 14
e 11 16
e 11 17
e 11 18
e 11 19
e 12 13
e 12 14
e 12 15
e 12 16
e 12 17
e 12 20
e 13 14
e 13 15
e 13 16
e 13 20
e 14 15
e 14 16
e 14 17
e 14 20
e 15 16
e 15 17
e 15 20
e 16 18
e 16 20
e 17 18
e 17 19
e 18 19
